c This is the enc1_simplified file generate by sty
p cnf 30 30
 1 2 0
 -1 -2 0
 5 6 0
 -5 -6 0
 15 16 0
 -15 -16 0
 19 20 0
 -19 -20 0
 25 26 0
 -25 -26 0
 -1 3 0
 -2 4 0
 -5 -15 -1 7 0
 -5 -15 -2 8 0
 -5 -16 -1 9 0
 -5 -16 -2 10 0
 -6 -15 -1 11 0
 -6 -15 -2 12 0
 -6 -16 -1 13 0
 -6 -16 -2 14 0
 -15 17 0
 -16 18 0
 -19 -5 21 0
 -19 -6 22 0
 -20 -5 23 0
 -20 -6 24 0
 -25 -5 27 0
 -25 -6 28 0
 -26 -5 29 0
 -26 -6 30 0
